num_offers = 30;
num_halls = 10;
start=[27,55,50,29,19,20,3,10,5,15,23,24,14,18,51,61,60,55,68,45,2,17,17,82,66,63,23,71,22,12];
end=[75,74,83,37,100,51,96,86,30,27,47,63,59,96,82,79,82,98,96,47,4,77,22,83,68,99,41,96,76,57];
price=[1885,1438,1666,181,1785,824,6520,3915,1840,222,1456,2174,2152,4531,1652,308,1591,3512,885,197,49,4273,237,199,242,2137,1572,501,4854,1439];
requirement=[861,967,464,794,695,301,412,523,378,203,514,729,794,414,649,425,720,557,509,215,266,338,868,302,531,793,785,309,220,213];
capacity=[489,657,687,792,717,847,253,773,611,513];
